certificates/rado_a14_c164_N34.cnf
c Rad2 upper bound instance: x1 + 14*x2 - x3 = 164, interval [1,34]
p cnf 34 164
1 5 12 0
-1 -5 -12 0
1 13 19 0
-1 -13 -19 0
1 14 33 0
-1 -14 -33 0
2 6 12 0
-2 -6 -12 0
2 13 20 0
-2 -13 -20 0
2 14 34 0
-2 -14 -34 0
3 7 12 0
-3 -7 -12 0
3 13 21 0
-3 -13 -21 0
4 8 12 0
-4 -8 -12 0
4 13 22 0
-4 -13 -22 0
5 9 12 0
-5 -9 -12 0
5 13 23 0
-5 -13 -23 0
6 10 12 0
-6 -10 -12 0
6 13 24 0
-6 -13 -24 0
7 11 12 0
-7 -11 -12 0
7 13 25 0
-7 -13 -25 0
8 12 0
-8 -12 0
8 13 26 0
-8 -13 -26 0
9 12 13 0
-9 -12 -13 0
9 13 27 0
-9 -13 -27 0
10 12 14 0
-10 -12 -14 0
10 13 28 0
-10 -13 -28 0
1 11 0
-1 -11 0
11 12 15 0
-11 -12 -15 0
11 13 29 0
-11 -13 -29 0
2 11 12 0
-2 -11 -12 0
12 16 0
-12 -16 0
12 13 30 0
-12 -13 -30 0
3 11 13 0
-3 -11 -13 0
12 13 17 0
-12 -13 -17 0
13 31 0
-13 -31 0
4 11 14 0
-4 -11 -14 0
12 14 18 0
-12 -14 -18 0
13 14 32 0
-13 -14 -32 0
5 11 15 0
-5 -11 -15 0
12 15 19 0
-12 -15 -19 0
13 15 33 0
-13 -15 -33 0
6 11 16 0
-6 -11 -16 0
12 16 20 0
-12 -16 -20 0
13 16 34 0
-13 -16 -34 0
7 11 17 0
-7 -11 -17 0
12 17 21 0
-12 -17 -21 0
8 11 18 0
-8 -11 -18 0
12 18 22 0
-12 -18 -22 0
9 11 19 0
-9 -11 -19 0
12 19 23 0
-12 -19 -23 0
10 11 20 0
-10 -11 -20 0
12 20 24 0
-12 -20 -24 0
11 21 0
-11 -21 0
12 21 25 0
-12 -21 -25 0
11 12 22 0
-11 -12 -22 0
12 22 26 0
-12 -22 -26 0
11 13 23 0
-11 -13 -23 0
12 23 27 0
-12 -23 -27 0
11 14 24 0
-11 -14 -24 0
12 24 28 0
-12 -24 -28 0
1 10 25 0
-1 -10 -25 0
11 15 25 0
-11 -15 -25 0
12 25 29 0
-12 -25 -29 0
2 10 26 0
-2 -10 -26 0
11 16 26 0
-11 -16 -26 0
12 26 30 0
-12 -26 -30 0
3 10 27 0
-3 -10 -27 0
11 17 27 0
-11 -17 -27 0
12 27 31 0
-12 -27 -31 0
4 10 28 0
-4 -10 -28 0
11 18 28 0
-11 -18 -28 0
12 28 32 0
-12 -28 -32 0
5 10 29 0
-5 -10 -29 0
11 19 29 0
-11 -19 -29 0
12 29 33 0
-12 -29 -33 0
6 10 30 0
-6 -10 -30 0
11 20 30 0
-11 -20 -30 0
12 30 34 0
-12 -30 -34 0
7 10 31 0
-7 -10 -31 0
11 21 31 0
-11 -21 -31 0
8 10 32 0
-8 -10 -32 0
11 22 32 0
-11 -22 -32 0
9 10 33 0
-9 -10 -33 0
11 23 33 0
-11 -23 -33 0
10 34 0
-10 -34 0
11 24 34 0
-11 -24 -34 0
