certificates/rado_a14_c164_N34.drat
12 -33 10 0
-33 10 0
d 12 -33 10 0
-13 -34 0
12 -34 0
-34 0
10 0
13 0
-31 0
-28 0
12 0
-8 0
-16 0
-6 0
-14 0
-9 0
-30 0
-17 0
11 0
2 0
-1 0
-21 0
-20 0
-29 0
-15 0
-22 0
-7 0
0
